N = 6;
H = 6;
T = 2;

avail = array3d(1..N, 1..H, 1..T, [0, 3, 3, 6, 9, 8, 1, 4, 2, 3, 10, 7, 2, 0, 4, 4, 9, 10, 0, 2, 5, 6, 7, 2, 8, 5, 1, 5, 1, 7, 1, 9, 4, 8, 0, 0, 9, 0, 7, 7, 5, 8, 9, 9, 4, 2, 5, 0, 5, 7, 3, 5, 2, 8, 0, 4, 4, 0, 5, 2, 5, 7, 8, 3, 0, 5, 0, 3, 2, 3, 8, 4]);

r = array2d(1..H, 1..T, [1, 1, 2, 1, 1, 2, 1, 2, 2, 0, 0, 0]);
